(declare-const x Bool)
(declare-fun a () Real)
(declare-fun e () Real)
(declare-fun l () Real)
(declare-fun l_ () Real)
(declare-fun _4 () Real)
(declare-fun r () Real)
(assert (forall ((q Real)) (and (> 0.0 q) (< 0.0 l) (< _4 0.0))))
(assert (forall ((q Real)) (= (or (< 0.0 (/ 1.0 0.0)) (= 0.0 (/ (* (+ l_ (* e (- a _4))) (+ l_ (* (- _4 a) (/ (to_real (- 1)) e)))) l))) (and (= a 0.0) (= 0.0 (/ 0.0 r e)) (or x (and (< 0.0 e) (= _4 (+ l a))))))))
(check-sat)
